Instance name : bar-n100-2
Authors       : Pix
Date          : 2025
Reference     : Simplified Hybrid ACO + Pure Greedy
Solution
Route 1 : 32 22 12 62 42 92 26 76 17 67 9 59 33 83 13 63 48 82 98 46 39 96 89 72
Route 2 : 15 34 65 84 31 45 95 81 6 3 56 44 53 94 25 21 71 75
Route 3 : 27 77 19 69 40 90 18 68 16 47 66 1 97 4 51 54 38 88 7 57
Route 4 : 20 70 28 78 49 99 35 85 24 74
Route 5 : 43 30 37 93 29 87 79 5 80 36 86 50 100 41 91 55 2 52 14 64
Route 6 : 23 73 10 8 60 58 11 61
